NAME: tsp20_22
COMMENT: 20-tsp problem (Padberg/Rinaldi)
TYPE: TSP
DIMENSION: 20
EDGE_WEIGHT_TYPE : EUC_2D
NODE_COORD_SECTION
1 28 6
2 1 25
3 7 23
4 26 20
5 12 28
6 28 2
7 2 26
8 27 15
9 24 13
10 13 8
11 1 25
12 16 17
13 34 14
14 36 30
15 14 10
16 20 25
17 27 14
18 18 1
19 30 26
20 33 26
